Maximize
F - f1 - f2

Subject to
F - 6y11 - 2y19 - 4y69 - 8y71 - 6y83 - 2y152 - 8y153 - 2y154 - 4y159 - 4y194 - 4y200 - 6y259 - 6y51 - 4y48 - 8y244 - 2y163 - 4y84 - 6y182 - 8y57 = 0
f1 - 0.007515s11 - 0.007515s19 - 0.007515s69 - 0.007515s71 - 0.007515s83 - 0.007515s152 - 0.007515s153 - 0.007515s154 - 0.007515s159 - 0.007515s194 - 0.007515s200 - 0.007515s259 - 0.007515s51 - 0.007515s48 - 0.007515s244 - 0.007515s163 - 0.007515s84 - 0.007515s182 - 0.007515s57  = 0
f2 - 2.31y11 - 1.92y19 - 1.64y69 - 2.02y71 - 2.37y83 - 1.87y152 - 1.16y153 - 1.50y154 - 1.37y159 - 1.24y194 - 1.95y200 - 1.33y259 - 1.39y51 - 1.60y48 - 1.45y244 - 1.55y163 - 0.28y84 - 1.50y182 - 1.16y57 = 0

x135x153x1 + x135x163x1 
<= 1
x186x11x1 + x186x71x1 + x186x153x1 + x186x159x1 + x186x51x1 + x186x163x1 
<= 1
x167x11x1 + x167x71x1 + x167x153x1 + x167x159x1 + x167x51x1 + x167x163x1 
<= 1
x181x11x1 + x181x71x1 + x181x153x1 + x181x159x1 + x181x51x1 + x181x163x1 
<= 1
x235x11x1 + x235x71x1 + x235x153x1 + x235x159x1 + x235x51x1 + x235x163x1 
<= 2
x113x11x1 + x113x71x1 + x113x153x1 + x113x159x1 + x113x51x1 + x113x163x1 
<= 1
x135x259x2 + x135x48x2 + x135x84x2 + x135x182x2 + x135x57x2 
<= 1
x53x84x2 + x53x182x2 + x53x57x2 
<= 2
x186x19x2 + x186x69x2 + x186x83x2 + x186x152x2 + x186x154x2 + x186x159x2 + x186x194x2 + x186x200x2 + x186x259x2 + x186x48x2 + x186x84x2 + x186x182x2 + x186x57x2 
<= 1
x35x19x2 + x35x69x2 + x35x83x2 + x35x152x2 + x35x154x2 + x35x159x2 + x35x194x2 + x35x200x2 + x35x259x2 + x35x48x2 + x35x84x2 + x35x182x2 + x35x57x2 
<= 2
x167x19x2 + x167x69x2 + x167x152x2 + x167x154x2 + x167x159x2 + x167x194x2 + x167x200x2 + x167x259x2 + x167x48x2 + x167x84x2 + x167x182x2 + x167x57x2 
<= 1
x27x69x2 + x27x152x2 + x27x154x2 + x27x159x2 + x27x194x2 + x27x200x2 + x27x259x2 + x27x48x2 + x27x84x2 + x27x182x2 + x27x57x2 
<= 2
x100x69x3 + x100x152x3 + x100x154x3 + x100x194x3 + x100x48x3 + x100x244x3 
<= 2
x181x11x3 + x181x69x3 + x181x83x3 + x181x152x3 + x181x154x3 + x181x194x3 + x181x48x3 + x181x244x3 
<= 1
x113x11x3 + x113x69x3 + x113x152x3 + x113x154x3 + x113x194x3 + x113x48x3 + x113x244x3 
<= 1
x243x11x3 + x243x69x3 + x243x83x3 + x243x152x3 + x243x154x3 + x243x194x3 + x243x48x3 + x243x244x3 
<= 1

x186x11x1 + x167x11x1 + x181x11x1 + x235x11x1 + x113x11x1 
- x11x0x1
- x11x163x1 
= 0

x181x11x3 + x113x11x3 + x243x11x3 
- x11x0x3
- x11x48x3 - x11x244x3 
= 0


x186x19x2 + x35x19x2 + x167x19x2 
- x19x0x2
- x19x84x2 - x19x182x2 - x19x57x2 
= 0



x186x69x2 + x35x69x2 + x167x69x2 + x27x69x2 
- x69x0x2
- x69x48x2 - x69x84x2 - x69x182x2 - x69x57x2 
= 0
x100x69x3 + x181x69x3 + x113x69x3 + x243x69x3 
- x69x0x3
- x69x48x3 - x69x244x3 
= 0

x186x71x1 + x167x71x1 + x181x71x1 + x235x71x1 + x113x71x1 
- x71x0x1
- x71x163x1 
= 0




x186x83x2 + x35x83x2 
- x83x0x2
- x83x84x2 - x83x182x2 - x83x57x2 
= 0
x181x83x3 + x243x83x3 
- x83x0x3
- x83x244x3 
= 0


x186x152x2 + x35x152x2 + x167x152x2 + x27x152x2 
- x152x0x2
- x152x48x2 - x152x84x2 - x152x182x2 - x152x57x2 
= 0
x100x152x3 + x181x152x3 + x113x152x3 + x243x152x3 
- x152x0x3
- x152x48x3 - x152x244x3 
= 0

x135x153x1 + x186x153x1 + x167x153x1 + x181x153x1 + x235x153x1 + x113x153x1 
- x153x0x1
- x153x163x1 
= 0




x186x154x2 + x35x154x2 + x167x154x2 + x27x154x2 
- x154x0x2
- x154x84x2 - x154x182x2 - x154x57x2 
= 0
x100x154x3 + x181x154x3 + x113x154x3 + x243x154x3 
- x154x0x3
- x154x244x3 
= 0

x186x159x1 + x167x159x1 + x181x159x1 + x235x159x1 + x113x159x1 
- x159x0x1
- x159x163x1 
= 0
x186x159x2 + x35x159x2 + x167x159x2 + x27x159x2 
- x159x0x2
- x159x48x2 - x159x84x2 - x159x182x2 - x159x57x2 
= 0



x186x194x2 + x35x194x2 + x167x194x2 + x27x194x2 
- x194x0x2
- x194x84x2 - x194x182x2 - x194x57x2 
= 0
x100x194x3 + x181x194x3 + x113x194x3 + x243x194x3 
- x194x0x3
- x194x244x3 
= 0


x186x200x2 + x35x200x2 + x167x200x2 + x27x200x2 
- x200x0x2
- x200x48x2 - x200x84x2 - x200x182x2 - x200x57x2 
= 0



x135x259x2 + x186x259x2 + x35x259x2 + x167x259x2 + x27x259x2 
- x259x0x2
- x259x84x2 - x259x182x2 - x259x57x2 
= 0


x186x51x1 + x167x51x1 + x181x51x1 + x235x51x1 + x113x51x1 
- x51x0x1
- x51x163x1 
= 0




x135x48x2 + x186x48x2 + x35x48x2 + x167x48x2 + x27x48x2 + x69x48x2 + x152x48x2 + x159x48x2 + x200x48x2 
- x48x0x2
- x48x84x2 - x48x182x2 - x48x57x2 
= 0
x100x48x3 + x181x48x3 + x113x48x3 + x243x48x3 + x11x48x3 + x69x48x3 + x152x48x3 
- x48x0x3
- x48x244x3 
= 0



x100x244x3 + x181x244x3 + x113x244x3 + x243x244x3 + x11x244x3 + x69x244x3 + x83x244x3 + x152x244x3 + x154x244x3 + x194x244x3 + x48x244x3 
- x244x0x3

= 0

x135x163x1 + x186x163x1 + x167x163x1 + x181x163x1 + x235x163x1 + x113x163x1 + x11x163x1 + x71x163x1 + x153x163x1 + x159x163x1 + x51x163x1 
- x163x0x1

= 0




x135x84x2 + x53x84x2 + x186x84x2 + x35x84x2 + x167x84x2 + x27x84x2 + x19x84x2 + x69x84x2 + x83x84x2 + x152x84x2 + x154x84x2 + x159x84x2 + x194x84x2 + x200x84x2 + x259x84x2 + x48x84x2 
- x84x0x2
- x84x57x2 
= 0



x135x182x2 + x53x182x2 + x186x182x2 + x35x182x2 + x167x182x2 + x27x182x2 + x19x182x2 + x69x182x2 + x83x182x2 + x152x182x2 + x154x182x2 + x159x182x2 + x194x182x2 + x200x182x2 + x259x182x2 + x48x182x2 
- x182x0x2
- x182x57x2 
= 0



x135x57x2 + x53x57x2 + x186x57x2 + x35x57x2 + x167x57x2 + x27x57x2 + x19x57x2 + x69x57x2 + x83x57x2 + x152x57x2 + x154x57x2 + x159x57x2 + x194x57x2 + x200x57x2 + x259x57x2 + x48x57x2 + x84x57x2 + x182x57x2 
- x57x0x2

= 0


1y11 - x186x11x1 - x167x11x1 - x181x11x1 - x235x11x1 - x113x11x1 = 0
1y11 - x181x11x3 - x113x11x3 - x243x11x3 = 0
2y19 - x186x19x2 - x35x19x2 - x167x19x2 = 0
1y69 - x186x69x2 - x35x69x2 - x167x69x2 - x27x69x2 = 0
1y69 - x100x69x3 - x181x69x3 - x113x69x3 - x243x69x3 = 0
2y71 - x186x71x1 - x167x71x1 - x181x71x1 - x235x71x1 - x113x71x1 = 0
1y83 - x186x83x2 - x35x83x2 = 0
1y83 - x181x83x3 - x243x83x3 = 0
1y152 - x186x152x2 - x35x152x2 - x167x152x2 - x27x152x2 = 0
1y152 - x100x152x3 - x181x152x3 - x113x152x3 - x243x152x3 = 0
2y153 - x135x153x1 - x186x153x1 - x167x153x1 - x181x153x1 - x235x153x1 - x113x153x1 = 0
1y154 - x186x154x2 - x35x154x2 - x167x154x2 - x27x154x2 = 0
1y154 - x100x154x3 - x181x154x3 - x113x154x3 - x243x154x3 = 0
1y159 - x186x159x1 - x167x159x1 - x181x159x1 - x235x159x1 - x113x159x1 = 0
1y159 - x186x159x2 - x35x159x2 - x167x159x2 - x27x159x2 = 0
1y194 - x186x194x2 - x35x194x2 - x167x194x2 - x27x194x2 = 0
1y194 - x100x194x3 - x181x194x3 - x113x194x3 - x243x194x3 = 0
2y200 - x186x200x2 - x35x200x2 - x167x200x2 - x27x200x2 = 0
2y259 - x135x259x2 - x186x259x2 - x35x259x2 - x167x259x2 - x27x259x2 = 0
2y51 - x186x51x1 - x167x51x1 - x181x51x1 - x235x51x1 - x113x51x1 = 0
1y48 - x135x48x2 - x186x48x2 - x35x48x2 - x167x48x2 - x27x48x2 - x69x48x2 - x152x48x2 - x159x48x2 - x200x48x2 = 0
1y48 - x100x48x3 - x181x48x3 - x113x48x3 - x243x48x3 - x11x48x3 - x69x48x3 - x152x48x3 = 0
2y244 - x100x244x3 - x181x244x3 - x113x244x3 - x243x244x3 - x11x244x3 - x69x244x3 - x83x244x3 - x152x244x3 - x154x244x3 - x194x244x3 - x48x244x3 = 0
2y163 - x135x163x1 - x186x163x1 - x167x163x1 - x181x163x1 - x235x163x1 - x113x163x1 - x11x163x1 - x71x163x1 - x153x163x1 - x159x163x1 - x51x163x1 = 0
2y84 - x135x84x2 - x53x84x2 - x186x84x2 - x35x84x2 - x167x84x2 - x27x84x2 - x19x84x2 - x69x84x2 - x83x84x2 - x152x84x2 - x154x84x2 - x159x84x2 - x194x84x2 - x200x84x2 - x259x84x2 - x48x84x2 = 0
2y182 - x135x182x2 - x53x182x2 - x186x182x2 - x35x182x2 - x167x182x2 - x27x182x2 - x19x182x2 - x69x182x2 - x83x182x2 - x152x182x2 - x154x182x2 - x159x182x2 - x194x182x2 - x200x182x2 - x259x182x2 - x48x182x2 = 0
2y57 - x135x57x2 - x53x57x2 - x186x57x2 - x35x57x2 - x167x57x2 - x27x57x2 - x19x57x2 - x69x57x2 - x83x57x2 - x152x57x2 - x154x57x2 - x159x57x2 - x194x57x2 - x200x57x2 - x259x57x2 - x48x57x2 - x84x57x2 - x182x57x2 = 0

s135 - s153 + 6.934301z135z153z1 <= 5.64
s135 - s259 + 6.864775z135z259z2 <= 5.64
s135 - s48 + 7.104546z135z48z2 <= 5.64
s135 - s163 + 7.152818z135z163z1 <= 5.64
s135 - s84 + 7.057980z135z84z2 <= 5.64
s135 - s182 + 7.163548z135z182z2 <= 5.64
s135 - s57 + 7.189966z135z57z2 <= 5.64
s53 - s84 + 7.244121z53z84z2 <= 5.87
s53 - s182 + 7.377954z53z182z2 <= 5.87
s53 - s57 + 7.395895z53z57z2 <= 5.87
s100 - s69 + 6.745336z100z69z3 <= 5.32
s100 - s152 + 6.784860z100z152z3 <= 5.32
s100 - s154 + 6.664860z100z154z3 <= 5.32
s100 - s194 + 6.632684z100z194z3 <= 5.32
s100 - s48 + 6.808596z100z48z3 <= 5.32
s100 - s244 + 6.820395z100z244z3 <= 5.32
s186 - s11 + 6.130973z186z11z1 <= 4.70
s186 - s19 + 6.089864z186z19z2 <= 4.70
s186 - s69 + 6.194943z186z69z2 <= 4.70
s186 - s71 + 6.168510z186z71z1 <= 4.70
s186 - s83 + 6.103592z186z83z2 <= 4.70
s186 - s152 + 6.192360z186z152z2 <= 4.70
s186 - s153 + 6.187106z186z153z1 <= 4.70
s186 - s154 + 6.153160z186z154z2 <= 4.70
s186 - s159 + 6.207971z186z159z1 <= 4.70
s186 - s159 + 6.207971z186z159z2 <= 4.70
s186 - s194 + 6.173878z186z194z2 <= 4.70
s186 - s200 + 6.180398z186z200z2 <= 4.70
s186 - s259 + 6.123423z186z259z2 <= 4.70
s186 - s51 + 6.249589z186z51z1 <= 4.70
s186 - s48 + 6.255135z186z48z2 <= 4.70
s186 - s163 + 6.302666z186z163z1 <= 4.70
s186 - s84 + 6.369036z186z84z2 <= 4.70
s186 - s182 + 6.317573z186z182z2 <= 4.70
s186 - s57 + 6.377594z186z57z2 <= 4.70
s35 - s19 + 6.372035z35z19z2 <= 4.86
s35 - s69 + 6.463356z35z69z2 <= 4.86
s35 - s83 + 6.467636z35z83z2 <= 4.86
s35 - s152 + 6.496689z35z152z2 <= 4.86
s35 - s154 + 6.380993z35z154z2 <= 4.86
s35 - s159 + 6.433857z35z159z2 <= 4.86
s35 - s194 + 6.358188z35z194z2 <= 4.86
s35 - s200 + 6.493620z35z200z2 <= 4.86
s35 - s259 + 6.292316z35z259z2 <= 4.86
s35 - s48 + 6.532629z35z48z2 <= 4.86
s35 - s84 + 6.476682z35z84z2 <= 4.86
s35 - s182 + 6.592252z35z182z2 <= 4.86
s35 - s57 + 6.618419z35z57z2 <= 4.86
s167 - s11 + 6.611754z167z11z1 <= 4.78
s167 - s19 + 6.491930z167z19z2 <= 4.78
s167 - s69 + 6.572239z167z69z2 <= 4.78
s167 - s71 + 6.607172z167z71z1 <= 4.78
s167 - s152 + 6.609547z167z152z2 <= 4.78
s167 - s153 + 6.463573z167z153z1 <= 4.78
s167 - s154 + 6.490324z167z154z2 <= 4.78
s167 - s159 + 6.536896z167z159z1 <= 4.78
s167 - s159 + 6.536896z167z159z2 <= 4.78
s167 - s194 + 6.461211z167z194z2 <= 4.78
s167 - s200 + 6.608253z167z200z2 <= 4.78
s167 - s259 + 6.401926z167z259z2 <= 4.78
s167 - s51 + 6.594287z167z51z1 <= 4.78
s167 - s48 + 6.637688z167z48z2 <= 4.78
s167 - s163 + 6.683200z167z163z1 <= 4.78
s167 - s84 + 6.543106z167z84z2 <= 4.78
s167 - s182 + 6.692479z167z182z2 <= 4.78
s167 - s57 + 6.708981z167z57z2 <= 4.78
s181 - s11 + 6.268363z181z11z1 <= 4.88
s181 - s11 + 6.268363z181z11z3 <= 4.88
s181 - s69 + 6.300526z181z69z3 <= 4.88
s181 - s71 + 6.293386z181z71z1 <= 4.88
s181 - s83 + 6.240355z181z83z3 <= 4.88
s181 - s152 + 6.312024z181z152z3 <= 4.88
s181 - s153 + 6.259436z181z153z1 <= 4.88
s181 - s154 + 6.238610z181z154z3 <= 4.88
s181 - s159 + 6.299246z181z159z1 <= 4.88
s181 - s194 + 6.247193z181z194z3 <= 4.88
s181 - s51 + 6.351113z181z51z1 <= 4.88
s181 - s48 + 6.369687z181z48z3 <= 4.88
s181 - s244 + 6.399461z181z244z3 <= 4.88
s181 - s163 + 6.421165z181z163z1 <= 4.88
s27 - s69 + 6.738645z27z69z2 <= 4.92
s27 - s152 + 6.717669z27z152z2 <= 4.92
s27 - s154 + 6.726620z27z154z2 <= 4.92
s27 - s159 + 6.768107z27z159z2 <= 4.92
s27 - s194 + 6.758437z27z194z2 <= 4.92
s27 - s200 + 6.704336z27z200z2 <= 4.92
s27 - s259 + 6.724585z27z259z2 <= 4.92
s27 - s48 + 6.777903z27z48z2 <= 4.92
s27 - s84 + 6.945505z27z84z2 <= 4.92
s27 - s182 + 6.826784z27z182z2 <= 4.92
s27 - s57 + 6.893284z27z57z2 <= 4.92
s235 - s11 + 6.428338z235z11z1 <= 5.11
s235 - s71 + 6.464373z235z71z1 <= 5.11
s235 - s153 + 6.485979z235z153z1 <= 5.11
s235 - s159 + 6.503404z235z159z1 <= 5.11
s235 - s51 + 6.544416z235z51z1 <= 5.11
s235 - s163 + 6.598412z235z163z1 <= 5.11
s113 - s11 + 6.627989z113z11z1 <= 4.99
s113 - s11 + 6.627989z113z11z3 <= 4.99
s113 - s69 + 6.591853z113z69z3 <= 4.99
s113 - s71 + 6.624543z113z71z1 <= 4.99
s113 - s152 + 6.627919z113z152z3 <= 4.99
s113 - s153 + 6.486094z113z153z1 <= 4.99
s113 - s154 + 6.509531z113z154z3 <= 4.99
s113 - s159 + 6.558649z113z159z1 <= 4.99
s113 - s194 + 6.482648z113z194z3 <= 4.99
s113 - s51 + 6.617058z113z51z1 <= 4.99
s113 - s48 + 6.658937z113z48z3 <= 4.99
s113 - s244 + 6.673817z113z244z3 <= 4.99
s113 - s163 + 6.705927z113z163z1 <= 4.99
s243 - s11 + 5.373966z243z11z3 <= 3.71
s243 - s69 + 5.387156z243z69z3 <= 3.71
s243 - s83 + 5.346770z243z83z3 <= 3.71
s243 - s152 + 5.407379z243z152z3 <= 3.71
s243 - s154 + 5.312875z243z154z3 <= 3.71
s243 - s194 + 5.307003z243z194z3 <= 3.71
s243 - s48 + 5.459063z243z48z3 <= 3.71
s243 - s244 + 5.485074z243z244z3 <= 3.71
s11 - s48 + 7.793998z11z48z3 <= 6.66
s11 - s244 + 7.827862z11z244z3 <= 6.66
s11 - s163 + 7.834992z11z163z1 <= 6.66
s19 - s84 + 7.826977z19z84z2 <= 6.54
s19 - s182 + 7.789889z19z182z2 <= 6.54
s19 - s57 + 7.840000z19z57z2 <= 6.54
s69 - s48 + 7.912111z69z48z2 <= 6.84
s69 - s48 + 7.912111z69z48z3 <= 6.84
s69 - s244 + 7.939107z69z244z3 <= 6.84
s69 - s84 + 8.057970z69z84z2 <= 6.84
s69 - s182 + 7.977437z69z182z2 <= 6.84
s69 - s57 + 8.026786z69z57z2 <= 6.84
s71 - s163 + 7.924164z71z163z1 <= 6.79
s83 - s244 + 7.730904z83z244z3 <= 6.54
s83 - s84 + 7.873200z83z84z2 <= 6.54
s83 - s182 + 7.755406z83z182z2 <= 6.54
s83 - s57 + 7.818408z83z57z2 <= 6.54
s152 - s48 + 7.943246z152z48z2 <= 6.88
s152 - s48 + 7.943246z152z48z3 <= 6.88
s152 - s244 + 7.977068z152z244z3 <= 6.88
s152 - s84 + 8.133860z152z84z2 <= 6.88
s152 - s182 + 8.005787z152z182z2 <= 6.88
s152 - s57 + 8.065712z152z57z2 <= 6.88
s153 - s163 + 8.169899z153z163z1 <= 6.95
s154 - s244 + 7.933846z154z244z3 <= 6.76
s154 - s84 + 7.980101z154z84z2 <= 6.76
s154 - s182 + 7.974994z154z182z2 <= 6.76
s154 - s57 + 8.014733z154z57z2 <= 6.76
s159 - s48 + 7.990885z159z48z2 <= 6.89
s159 - s163 + 8.037573z159z163z1 <= 6.89
s159 - s84 + 8.069506z159z84z2 <= 6.89
s159 - s182 + 8.048465z159z182z2 <= 6.89
s159 - s57 + 8.083793z159z57z2 <= 6.89
s194 - s244 + 8.101949z194z244z3 <= 6.91
s194 - s84 + 8.105164z194z84z2 <= 6.91
s194 - s182 + 8.144094z194z182z2 <= 6.91
s194 - s57 + 8.174407z194z57z2 <= 6.91
s200 - s48 + 7.906012z200z48z2 <= 6.83
s200 - s84 + 8.095497z200z84z2 <= 6.83
s200 - s182 + 7.967275z200z182z2 <= 6.83
s200 - s57 + 8.028214z200z57z2 <= 6.83
s259 - s84 + 8.192982z259z84z2 <= 6.94
s259 - s182 + 8.241257z259z182z2 <= 6.94
s259 - s57 + 8.274796z259z57z2 <= 6.94
s51 - s163 + 8.128944z51z163z1 <= 7.04
s48 - s244 + 8.173993z48z244z3 <= 7.14
s48 - s84 + 8.357051z48z84z2 <= 7.14
s48 - s182 + 8.205997z48z182z2 <= 7.14
s48 - s57 + 8.262565z48z57z2 <= 7.14
s84 - s57 + 8.678885z84z57z2 <= 7.48
s182 - s57 + 8.556666z182z57z2 <= 7.49

x135x153x1 - 2z135z153z1 <= 0
x135x259x2 - 2z135z259z2 <= 0
x135x48x2 - 1z135z48z2 <= 0
x135x163x1 - 2z135z163z1 <= 0
x135x84x2 - 2z135z84z2 <= 0
x135x182x2 - 2z135z182z2 <= 0
x135x57x2 - 2z135z57z2 <= 0
x53x84x2 - 2z53z84z2 <= 0
x53x182x2 - 2z53z182z2 <= 0
x53x57x2 - 2z53z57z2 <= 0
x100x69x3 - 1z100z69z3 <= 0
x100x152x3 - 1z100z152z3 <= 0
x100x154x3 - 1z100z154z3 <= 0
x100x194x3 - 1z100z194z3 <= 0
x100x48x3 - 1z100z48z3 <= 0
x100x244x3 - 2z100z244z3 <= 0
x186x11x1 - 1z186z11z1 <= 0
x186x19x2 - 2z186z19z2 <= 0
x186x69x2 - 1z186z69z2 <= 0
x186x71x1 - 2z186z71z1 <= 0
x186x83x2 - 1z186z83z2 <= 0
x186x152x2 - 1z186z152z2 <= 0
x186x153x1 - 2z186z153z1 <= 0
x186x154x2 - 1z186z154z2 <= 0
x186x159x1 - 1z186z159z1 <= 0
x186x159x2 - 1z186z159z2 <= 0
x186x194x2 - 1z186z194z2 <= 0
x186x200x2 - 2z186z200z2 <= 0
x186x259x2 - 2z186z259z2 <= 0
x186x51x1 - 2z186z51z1 <= 0
x186x48x2 - 1z186z48z2 <= 0
x186x163x1 - 2z186z163z1 <= 0
x186x84x2 - 2z186z84z2 <= 0
x186x182x2 - 2z186z182z2 <= 0
x186x57x2 - 2z186z57z2 <= 0
x35x19x2 - 2z35z19z2 <= 0
x35x69x2 - 1z35z69z2 <= 0
x35x83x2 - 1z35z83z2 <= 0
x35x152x2 - 1z35z152z2 <= 0
x35x154x2 - 1z35z154z2 <= 0
x35x159x2 - 1z35z159z2 <= 0
x35x194x2 - 1z35z194z2 <= 0
x35x200x2 - 2z35z200z2 <= 0
x35x259x2 - 2z35z259z2 <= 0
x35x48x2 - 1z35z48z2 <= 0
x35x84x2 - 2z35z84z2 <= 0
x35x182x2 - 2z35z182z2 <= 0
x35x57x2 - 2z35z57z2 <= 0
x167x11x1 - 1z167z11z1 <= 0
x167x19x2 - 2z167z19z2 <= 0
x167x69x2 - 1z167z69z2 <= 0
x167x71x1 - 2z167z71z1 <= 0
x167x152x2 - 1z167z152z2 <= 0
x167x153x1 - 2z167z153z1 <= 0
x167x154x2 - 1z167z154z2 <= 0
x167x159x1 - 1z167z159z1 <= 0
x167x159x2 - 1z167z159z2 <= 0
x167x194x2 - 1z167z194z2 <= 0
x167x200x2 - 2z167z200z2 <= 0
x167x259x2 - 2z167z259z2 <= 0
x167x51x1 - 2z167z51z1 <= 0
x167x48x2 - 1z167z48z2 <= 0
x167x163x1 - 2z167z163z1 <= 0
x167x84x2 - 2z167z84z2 <= 0
x167x182x2 - 2z167z182z2 <= 0
x167x57x2 - 2z167z57z2 <= 0
x181x11x1 - 1z181z11z1 <= 0
x181x11x3 - 1z181z11z3 <= 0
x181x69x3 - 1z181z69z3 <= 0
x181x71x1 - 2z181z71z1 <= 0
x181x83x3 - 1z181z83z3 <= 0
x181x152x3 - 1z181z152z3 <= 0
x181x153x1 - 2z181z153z1 <= 0
x181x154x3 - 1z181z154z3 <= 0
x181x159x1 - 1z181z159z1 <= 0
x181x194x3 - 1z181z194z3 <= 0
x181x51x1 - 2z181z51z1 <= 0
x181x48x3 - 1z181z48z3 <= 0
x181x244x3 - 2z181z244z3 <= 0
x181x163x1 - 2z181z163z1 <= 0
x27x69x2 - 1z27z69z2 <= 0
x27x152x2 - 1z27z152z2 <= 0
x27x154x2 - 1z27z154z2 <= 0
x27x159x2 - 1z27z159z2 <= 0
x27x194x2 - 1z27z194z2 <= 0
x27x200x2 - 2z27z200z2 <= 0
x27x259x2 - 2z27z259z2 <= 0
x27x48x2 - 1z27z48z2 <= 0
x27x84x2 - 2z27z84z2 <= 0
x27x182x2 - 2z27z182z2 <= 0
x27x57x2 - 2z27z57z2 <= 0
x235x11x1 - 1z235z11z1 <= 0
x235x71x1 - 2z235z71z1 <= 0
x235x153x1 - 2z235z153z1 <= 0
x235x159x1 - 1z235z159z1 <= 0
x235x51x1 - 2z235z51z1 <= 0
x235x163x1 - 2z235z163z1 <= 0
x113x11x1 - 1z113z11z1 <= 0
x113x11x3 - 1z113z11z3 <= 0
x113x69x3 - 1z113z69z3 <= 0
x113x71x1 - 2z113z71z1 <= 0
x113x152x3 - 1z113z152z3 <= 0
x113x153x1 - 2z113z153z1 <= 0
x113x154x3 - 1z113z154z3 <= 0
x113x159x1 - 1z113z159z1 <= 0
x113x194x3 - 1z113z194z3 <= 0
x113x51x1 - 2z113z51z1 <= 0
x113x48x3 - 1z113z48z3 <= 0
x113x244x3 - 2z113z244z3 <= 0
x113x163x1 - 2z113z163z1 <= 0
x243x11x3 - 1z243z11z3 <= 0
x243x69x3 - 1z243z69z3 <= 0
x243x83x3 - 1z243z83z3 <= 0
x243x152x3 - 1z243z152z3 <= 0
x243x154x3 - 1z243z154z3 <= 0
x243x194x3 - 1z243z194z3 <= 0
x243x48x3 - 1z243z48z3 <= 0
x243x244x3 - 2z243z244z3 <= 0
x11x48x3 - 1z11z48z3 <= 0
x11x244x3 - 2z11z244z3 <= 0
x11x163x1 - 2z11z163z1 <= 0
x11x0x1 <= 1
x11x0x3 <= 1
x19x84x2 - 2z19z84z2 <= 0
x19x182x2 - 2z19z182z2 <= 0
x19x57x2 - 2z19z57z2 <= 0
x19x0x2 <= 2
x69x48x2 - 1z69z48z2 <= 0
x69x48x3 - 1z69z48z3 <= 0
x69x244x3 - 2z69z244z3 <= 0
x69x84x2 - 2z69z84z2 <= 0
x69x182x2 - 2z69z182z2 <= 0
x69x57x2 - 2z69z57z2 <= 0
x69x0x2 <= 1
x69x0x3 <= 1
x71x163x1 - 2z71z163z1 <= 0
x71x0x1 <= 2
x83x244x3 - 2z83z244z3 <= 0
x83x84x2 - 2z83z84z2 <= 0
x83x182x2 - 2z83z182z2 <= 0
x83x57x2 - 2z83z57z2 <= 0
x83x0x2 <= 1
x83x0x3 <= 1
x152x48x2 - 1z152z48z2 <= 0
x152x48x3 - 1z152z48z3 <= 0
x152x244x3 - 2z152z244z3 <= 0
x152x84x2 - 2z152z84z2 <= 0
x152x182x2 - 2z152z182z2 <= 0
x152x57x2 - 2z152z57z2 <= 0
x152x0x2 <= 1
x152x0x3 <= 1
x153x163x1 - 2z153z163z1 <= 0
x153x0x1 <= 2
x154x244x3 - 2z154z244z3 <= 0
x154x84x2 - 2z154z84z2 <= 0
x154x182x2 - 2z154z182z2 <= 0
x154x57x2 - 2z154z57z2 <= 0
x154x0x2 <= 1
x154x0x3 <= 1
x159x48x2 - 1z159z48z2 <= 0
x159x163x1 - 2z159z163z1 <= 0
x159x84x2 - 2z159z84z2 <= 0
x159x182x2 - 2z159z182z2 <= 0
x159x57x2 - 2z159z57z2 <= 0
x159x0x1 <= 1
x159x0x2 <= 1
x194x244x3 - 2z194z244z3 <= 0
x194x84x2 - 2z194z84z2 <= 0
x194x182x2 - 2z194z182z2 <= 0
x194x57x2 - 2z194z57z2 <= 0
x194x0x2 <= 1
x194x0x3 <= 1
x200x48x2 - 1z200z48z2 <= 0
x200x84x2 - 2z200z84z2 <= 0
x200x182x2 - 2z200z182z2 <= 0
x200x57x2 - 2z200z57z2 <= 0
x200x0x2 <= 2
x259x84x2 - 2z259z84z2 <= 0
x259x182x2 - 2z259z182z2 <= 0
x259x57x2 - 2z259z57z2 <= 0
x259x0x2 <= 2
x51x163x1 - 2z51z163z1 <= 0
x51x0x1 <= 2
x48x244x3 - 2z48z244z3 <= 0
x48x84x2 - 2z48z84z2 <= 0
x48x182x2 - 2z48z182z2 <= 0
x48x57x2 - 2z48z57z2 <= 0
x48x0x2 <= 1
x48x0x3 <= 1
x244x0x3 <= 2
x163x0x1 <= 2
x84x57x2 - 2z84z57z2 <= 0
x84x0x2 <= 2
x182x57x2 - 2z182z57z2 <= 0
x182x0x2 <= 2
x57x0x2 <= 2

Bounds
s135 = 5.638403
s214 = 5.913559
s53 = 5.866703
s100 = 5.324860
s262 = 5.891377
s261 = 5.986559
s186 = 4.703370
s35 = 4.858010
s167 = 4.784980
s181 = 4.883020
s27 = 4.917670
s235 = 5.112110
s113 = 4.994340
s243 = 3.708300
6.000000 <= s11 <= 6.660000
6.000000 <= s19 <= 6.540000
6.000000 <= s69 <= 6.840000
6.000000 <= s71 <= 6.790000
6.000000 <= s83 <= 6.540000
6.000000 <= s152 <= 6.880000
6.000000 <= s153 <= 6.950000
6.000000 <= s154 <= 6.760000
6.000000 <= s159 <= 6.890000
6.000000 <= s194 <= 6.910000
6.000000 <= s200 <= 6.830000
6.000000 <= s259 <= 6.940000
6.040000 <= s51 <= 7.040000
6.140000 <= s48 <= 7.140000
6.270000 <= s244 <= 7.270000
6.420000 <= s163 <= 7.420000
6.480000 <= s84 <= 7.480000
6.490000 <= s182 <= 7.490000
6.700000 <= s57 <= 7.700000

General
x135x153x1 x135x259x2 x135x48x2 x135x163x1 x135x84x2 x135x182x2 x135x57x2 

x53x84x2 x53x182x2 x53x57x2 
x100x69x3 x100x152x3 x100x154x3 x100x194x3 x100x48x3 x100x244x3 


x186x11x1 x186x19x2 x186x69x2 x186x71x1 x186x83x2 x186x152x2 x186x153x1 x186x154x2 x186x159x1 x186x159x2 x186x194x2 x186x200x2 x186x259x2 x186x51x1 x186x48x2 x186x163x1 x186x84x2 x186x182x2 x186x57x2 
x35x19x2 x35x69x2 x35x83x2 x35x152x2 x35x154x2 x35x159x2 x35x194x2 x35x200x2 x35x259x2 x35x48x2 x35x84x2 x35x182x2 x35x57x2 
x167x11x1 x167x19x2 x167x69x2 x167x71x1 x167x152x2 x167x153x1 x167x154x2 x167x159x1 x167x159x2 x167x194x2 x167x200x2 x167x259x2 x167x51x1 x167x48x2 x167x163x1 x167x84x2 x167x182x2 x167x57x2 
x181x11x1 x181x11x3 x181x69x3 x181x71x1 x181x83x3 x181x152x3 x181x153x1 x181x154x3 x181x159x1 x181x194x3 x181x51x1 x181x48x3 x181x244x3 x181x163x1 
x27x69x2 x27x152x2 x27x154x2 x27x159x2 x27x194x2 x27x200x2 x27x259x2 x27x48x2 x27x84x2 x27x182x2 x27x57x2 
x235x11x1 x235x71x1 x235x153x1 x235x159x1 x235x51x1 x235x163x1 
x113x11x1 x113x11x3 x113x69x3 x113x71x1 x113x152x3 x113x153x1 x113x154x3 x113x159x1 x113x194x3 x113x51x1 x113x48x3 x113x244x3 x113x163x1 
x243x11x3 x243x69x3 x243x83x3 x243x152x3 x243x154x3 x243x194x3 x243x48x3 x243x244x3 
x11x48x3 x11x244x3 x11x163x1 x11x0x1 x11x0x3 
x19x84x2 x19x182x2 x19x57x2 x19x0x2 
x69x48x2 x69x48x3 x69x244x3 x69x84x2 x69x182x2 x69x57x2 x69x0x2 x69x0x3 
x71x163x1 x71x0x1 
x83x244x3 x83x84x2 x83x182x2 x83x57x2 x83x0x2 x83x0x3 
x152x48x2 x152x48x3 x152x244x3 x152x84x2 x152x182x2 x152x57x2 x152x0x2 x152x0x3 
x153x163x1 x153x0x1 
x154x244x3 x154x84x2 x154x182x2 x154x57x2 x154x0x2 x154x0x3 
x159x48x2 x159x163x1 x159x84x2 x159x182x2 x159x57x2 x159x0x1 x159x0x2 
x194x244x3 x194x84x2 x194x182x2 x194x57x2 x194x0x2 x194x0x3 
x200x48x2 x200x84x2 x200x182x2 x200x57x2 x200x0x2 
x259x84x2 x259x182x2 x259x57x2 x259x0x2 
x51x163x1 x51x0x1 
x48x244x3 x48x84x2 x48x182x2 x48x57x2 x48x0x2 x48x0x3 
x244x0x3 
x163x0x1 
x84x57x2 x84x0x2 
x182x57x2 x182x0x2 
x57x0x2 

Binaries
y11 y19 y69 y71 y83 y152 y153 y154 y159 y194 y200 y259 y51 y48 y244 y163 y84 y182 y57 
z135z153z1 z135z259z2 z135z48z2 z135z163z1 z135z84z2 z135z182z2 z135z57z2 

z53z84z2 z53z182z2 z53z57z2 
z100z69z3 z100z152z3 z100z154z3 z100z194z3 z100z48z3 z100z244z3 


z186z11z1 z186z19z2 z186z69z2 z186z71z1 z186z83z2 z186z152z2 z186z153z1 z186z154z2 z186z159z1 z186z159z2 z186z194z2 z186z200z2 z186z259z2 z186z51z1 z186z48z2 z186z163z1 z186z84z2 z186z182z2 z186z57z2 
z35z19z2 z35z69z2 z35z83z2 z35z152z2 z35z154z2 z35z159z2 z35z194z2 z35z200z2 z35z259z2 z35z48z2 z35z84z2 z35z182z2 z35z57z2 
z167z11z1 z167z19z2 z167z69z2 z167z71z1 z167z152z2 z167z153z1 z167z154z2 z167z159z1 z167z159z2 z167z194z2 z167z200z2 z167z259z2 z167z51z1 z167z48z2 z167z163z1 z167z84z2 z167z182z2 z167z57z2 
z181z11z1 z181z11z3 z181z69z3 z181z71z1 z181z83z3 z181z152z3 z181z153z1 z181z154z3 z181z159z1 z181z194z3 z181z51z1 z181z48z3 z181z244z3 z181z163z1 
z27z69z2 z27z152z2 z27z154z2 z27z159z2 z27z194z2 z27z200z2 z27z259z2 z27z48z2 z27z84z2 z27z182z2 z27z57z2 
z235z11z1 z235z71z1 z235z153z1 z235z159z1 z235z51z1 z235z163z1 
z113z11z1 z113z11z3 z113z69z3 z113z71z1 z113z152z3 z113z153z1 z113z154z3 z113z159z1 z113z194z3 z113z51z1 z113z48z3 z113z244z3 z113z163z1 
z243z11z3 z243z69z3 z243z83z3 z243z152z3 z243z154z3 z243z194z3 z243z48z3 z243z244z3 
z11z48z3 z11z244z3 z11z163z1 
z19z84z2 z19z182z2 z19z57z2 
z69z48z2 z69z48z3 z69z244z3 z69z84z2 z69z182z2 z69z57z2 
z71z163z1 
z83z244z3 z83z84z2 z83z182z2 z83z57z2 
z152z48z2 z152z48z3 z152z244z3 z152z84z2 z152z182z2 z152z57z2 
z153z163z1 
z154z244z3 z154z84z2 z154z182z2 z154z57z2 
z159z48z2 z159z163z1 z159z84z2 z159z182z2 z159z57z2 
z194z244z3 z194z84z2 z194z182z2 z194z57z2 
z200z48z2 z200z84z2 z200z182z2 z200z57z2 
z259z84z2 z259z182z2 z259z57z2 
z51z163z1 
z48z244z3 z48z84z2 z48z182z2 z48z57z2 


z84z57z2 
z182z57z2 


End